DIMENSION: 26
EDGE_WEIGHT_TYPE: EXPLICIT
EDGE_WEIGHT_FORMAT: FULL_MATRIX
EDGE_WEIGHT_SECTION:
32767 32767 32767 32767 55 26 32767 100 32767 32767 32767 32767 32767 76 32767 32767 13 32 32767 32767 32767 32767 43 32767 32767 32 
32767 32767 32767 32767 84 32767 32767 32767 32767 32767 90 32767 7 32767 32767 32767 32767 32767 32767 50 32767 32767 32767 88 32767 32767 
32767 32767 32767 32767 32767 67 32767 32767 28 32767 32767 32767 29 32767 87 32767 63 32767 32767 58 32767 3 32767 42 32767 74 
32767 32767 32767 32767 37 66 32767 45 32767 32767 32767 32767 32767 38 88 34 32767 32767 32767 32767 4 32767 63 32767 32767 49 
55 84 32767 37 32767 32767 92 32767 32767 32767 32767 32767 46 32767 43 32767 30 32767 32767 9 30 32767 64 32767 39 32767 
26 32767 67 66 32767 32767 39 24 32767 32767 40 39 32767 32767 32767 32767 32767 32767 32767 57 32767 17 32767 32767 32767 32767 
32767 32767 32767 32767 92 39 32767 32767 32767 32767 8 32767 32767 32767 95 32767 86 32767 32767 91 32767 32767 4 32767 12 93 
100 32767 32767 45 32767 24 32767 32767 61 35 32767 69 32767 32767 32767 98 32767 44 8 81 32767 32767 25 32767 80 27 
32767 32767 28 32767 32767 32767 32767 61 32767 32767 19 32767 89 32767 32767 78 32767 32767 32767 78 21 32767 32767 32767 32767 32767 
32767 32767 32767 32767 32767 32767 32767 35 32767 32767 32767 41 11 32767 32767 32767 32767 24 68 32767 32767 32767 32767 32767 32767 32767 
32767 90 32767 32767 32767 40 8 32767 19 32767 32767 11 32767 32767 32767 32767 23 32767 32767 32767 32767 32767 15 4 32767 32767 
32767 32767 32767 32767 32767 39 32767 69 32767 41 11 32767 32767 32767 32767 32767 67 32767 32767 23 16 32767 32767 13 32767 45 
32767 7 29 32767 46 32767 32767 32767 89 11 32767 32767 32767 32767 32767 24 1 32767 32767 60 32767 59 32767 32767 32767 95 
76 32767 32767 38 32767 32767 32767 32767 32767 32767 32767 32767 32767 32767 32767 32767 32767 32767 32767 76 32767 32767 52 32767 32767 32767 
32767 32767 87 88 43 32767 95 32767 32767 32767 32767 32767 32767 32767 32767 32767 32767 73 32767 32767 32767 73 32767 83 23 100 
32767 32767 32767 34 32767 32767 32767 98 78 32767 32767 32767 24 32767 32767 32767 32767 32767 32767 81 32767 8 32767 32767 32767 32767 
13 32767 63 32767 30 32767 86 32767 32767 32767 23 67 1 32767 32767 32767 32767 82 11 32767 32767 20 32767 23 32767 32767 
32 32767 32767 32767 32767 32767 32767 44 32767 24 32767 32767 32767 32767 73 32767 82 32767 32767 32767 32767 32767 32767 32767 32767 32767 
32767 32767 32767 32767 32767 32767 32767 8 32767 68 32767 32767 32767 32767 32767 32767 11 32767 32767 32767 32767 32767 32767 32767 32767 32767 
32767 50 58 32767 9 57 91 81 78 32767 32767 23 60 76 32767 81 32767 32767 32767 32767 32767 100 32767 32767 32767 32767 
32767 32767 32767 4 30 32767 32767 32767 21 32767 32767 16 32767 32767 32767 32767 32767 32767 32767 32767 32767 32767 32767 32767 44 32767 
32767 32767 3 32767 32767 17 32767 32767 32767 32767 32767 32767 59 32767 73 8 20 32767 32767 100 32767 32767 32767 32767 35 13 
43 32767 32767 63 64 32767 4 25 32767 32767 15 32767 32767 52 32767 32767 32767 32767 32767 32767 32767 32767 32767 32767 32767 32767 
32767 88 42 32767 32767 32767 32767 32767 32767 32767 4 13 32767 32767 83 32767 23 32767 32767 32767 32767 32767 32767 32767 26 32767 
32767 32767 32767 32767 39 32767 12 80 32767 32767 32767 32767 32767 32767 23 32767 32767 32767 32767 32767 44 35 32767 26 32767 32767 
32 32767 74 49 32767 32767 93 27 32767 32767 32767 45 95 32767 100 32767 32767 32767 32767 32767 32767 13 32767 32767 32767 32767 
EOF